NAME : instances/clustered-mixed-tsp/instance-87.tsp
COMMENT : No Comment
TYPE : TSP
DIMENSION: 49
EDGE_WEIGHT_TYPE : EUC_2D
NODE_COORD_SECTION
1 683 811 
2 579 1123 
3 1132 448 
4 826 928 
5 890 470 
6 -65 656 
7 885 617 
8 1002 695 
9 670 876 
10 1041 682 
11 761 837 
12 398 217 
13 26 643 
14 1080 591 
15 898 682 
16 890 613 
17 898 630 
18 800 837 
19 424 61 
20 26 747 
21 487 369 
22 1132 669 
23 333 126 
24 774 954 
25 989 474 
26 1059 782 
27 1054 513 
28 911 461 
29 872 643 
30 424 152 
31 929 470 
32 39 474 
33 942 548 
34 839 850 
35 -13 760 
36 1093 500 
37 1080 760 
38 773 730 
39 370 499 
40 1093 604 
41 838 730 
42 190 178 
43 242 139 
44 514 1045 
45 924 500 
46 963 435 
47 553 850 
48 937 760 
49 553 902 
EOF
